p cnf 19 8
a 1 2 3 4 0
e 5 6 0
a 7 0
e 8 9 0
a 10 0
e 11 12 0
a 13 0
e 14 0
a 15 0
e 16 17 0
a 18 0
e 19 0
14 1 6 -15 4 0
-12 -15 14 8 -9 0
4 10 -3 13 -1 0
-14 -10 0
4 5 -8 18 -7 0
6 -4 2 -5 0
3 7 6 16 0
6 -4 10 18 -7 0
